S = 4;
start = [|0,13,0,0,8,0,0,12,0,0,0,0,0,14,0,7|
12,1,0,2,0,11,0,0,7,0,0,0,0,6,0,0|
0,14,0,0,0,3,0,0,16,5,12,10,0,0,0,0|
16,6,0,7,0,0,0,0,13,8,9,11,5,15,0,0|
15,9,2,3,0,0,0,4,10,0,13,0,0,0,1,0|
0,12,0,0,5,10,16,11,2,0,0,0,0,3,0,0|
0,0,0,5,0,0,1,9,15,0,0,12,0,2,0,0|
1,0,14,11,0,15,0,3,0,6,0,5,0,9,12,16|
6,2,0,14,0,7,13,0,0,0,0,0,0,0,0,5|
7,10,0,1,0,0,0,2,3,14,0,0,0,4,6,0|
3,0,11,0,9,14,0,0,5,0,10,0,0,13,2,0|
0,5,12,9,0,0,15,0,0,1,0,0,3,0,0,10|
0,0,0,0,0,0,0,5,6,4,2,0,0,8,0,1|
2,0,1,13,0,0,11,0,0,0,3,8,0,0,5,0|
0,3,6,0,0,2,0,16,0,0,0,15,0,0,0,13|
0,15,0,0,0,0,0,0,12,0,0,9,2,0,0,0|];